Route #1: 75 68 6 51 17 40 12 72 58 7
Route #2: 53 11 66 65 38 10 31
Route #3: 39 9 25 55 18 50 32 44 3 16
Route #4: 63 49 24 23 56 41 64 42 43 1
Route #5: 33 73 62 22 61 21 28 74 2
Route #6: 30 48 47 36 69 71 60 70 20 37 5
Route #7: 4 45 29 27 52 34 46 67
Route #8: 15 57 13 54 19 59 14 35 8 26
Cost 791